solution status: optimal solution found
objective value:                                    0
$_79_y                                             18 	(obj:0)
$_79_z                                             19 	(obj:0)
$_7__4_y                                           18 	(obj:0)
$_7__4_z                                           17 	(obj:0)
$_80_y                                             20 	(obj:0)
$_80_z                                             19 	(obj:0)
$_6__4_y                                           16 	(obj:0)
$_6__4_z                                           16 	(obj:0)
$_112_y                                            19 	(obj:0)
$_112_z                                            19 	(obj:0)
